
Gurobi 13.0.1 (linux64) logging started Sat Mar 21 23:08:42 2026

Set parameter LogFile to value "logs/50B_6F_robust_gamma_-1_theta_0d05199999999999999_2026-03-21_23h08m29s.log"
Gurobi Optimizer version 13.0.1 build v13.0.1rc0 (linux64 - "Linux Mint 22")

CPU model: 12th Gen Intel(R) Core(TM) i7-12700, instruction set [SSE2|AVX|AVX2]
Thread count: 20 physical cores, 20 logical processors, using up to 20 threads

Non-default parameters:
TimeLimit  3600
SoftMemLimit  12

Optimize a model with 59850 rows, 780571 columns and 2382786 nonzeros (Max)
Model fingerprint: 0xf3623172
Model has 735061 linear objective coefficients
Variable types: 15571 continuous, 765000 integer (765000 binary)
Coefficient statistics:
  Matrix range     [3e-05, 1e+05]
  Objective range  [1e+00, 3e+03]
  Bounds range     [1e+00, 1e+05]
  RHS range        [8e-03, 1e+05]

Presolve removed 0 rows and 510 columns
Presolve time: 0.07s

Explored 0 nodes (0 simplex iterations) in 0.15 seconds (0.30 work units)
Thread count was 1 (of 20 available processors)

Solution count 0

Model is infeasible or unbounded
Best objective -, best bound -, gap -
